(declare-fun e () String)
(declare-fun c () String)
(declare-fun g () String)
(declare-fun b () String)
(declare-fun d () String)
(declare-fun f () String)
(declare-fun a () String)
(declare-fun h () String)
(assert (= (str.++ "a" d b f h) (str.++ d "af" h)))
(assert (= (str.++ e "b" e) (str.++ c "h" a "h")))
(assert (= g "h"))

(check-sat)
